NAME : RC1_4_1.52
TYPE : VRPSPD
DIMENSION : 401
VEHICLES : 52
CAPACITY : 200
DISTANCE : 999999
SCALE : 1000
EDGE_WEIGHT_TYPE : EXACT_2D
NODE_COORD_SECTION
1 100 100
2 134 6
3 63 58
4 64 52
5 139 7
6 110 8
7 79 193
8 80 190
9 158 81
10 60 153
11 141 8
12 13 81
13 68 115
14 151 132
15 88 143
16 16 84
17 155 17
18 69 150
19 55 87
20 22 133
21 10 20
22 187 142
23 114 122
24 78 119
25 199 115
26 185 124
27 46 22
28 7 152
29 144 92
30 5 162
31 197 113
32 189 95
33 84 118
34 28 77
35 105 26
36 113 100
37 139 97
38 143 179
39 111 189
40 119 37
41 87 191
42 80 167
43 23 137
44 181 70
45 178 123
46 45 142
47 151 66
48 68 50
49 159 196
50 87 30
51 187 92
52 10 153
53 54 30
54 54 37
55 180 147
56 154 59
57 93 13
58 38 190
59 104 88
60 78 169
61 127 143
62 24 131
63 82 194
64 165 117
65 23 176
66 55 24
67 148 157
68 186 91
69 26 138
70 78 184
71 165 181
72 11 151
73 103 66
74 188 125
75 197 140
76 100 70
77 83 118
78 66 58
79 83 188
80 12 154
81 158 20
82 161 158
83 41 186
84 162 162
85 89 176
86 86 69
87 20 72
88 41 182
89 178 147
90 140 11
91 60 51
92 100 6
93 18 89
94 85 110
95 37 146
96 181 89
97 26 147
98 52 38
99 131 136
100 46 131
101 35 160
102 187 97
103 172 179
104 156 93
105 85 164
106 17 32
107 175 60
108 82 48
109 62 50
110 137 1
111 140 4
112 143 0
113 198 132
114 25 146
115 137 10
116 15 88
117 38 183
118 121 48
119 62 15
120 19 38
121 144 59
122 125 78
123 12 156
124 53 29
125 22 61
126 159 121
127 59 83
128 59 57
129 168 58
130 12 85
131 85 193
132 155 107
133 195 132
134 55 51
135 189 120
136 59 139
137 121 50
138 10 67
139 52 28
140 17 150
141 101 67
142 69 47
143 164 113
144 79 115
145 80 108
146 184 116
147 27 135
148 29 139
149 84 194
150 186 94
151 114 72
152 90 4
153 41 187
154 92 178
155 46 40
156 174 128
157 30 142
158 28 193
159 185 96
160 74 55
161 23 123
162 103 70
163 42 174
164 8 8
165 83 81
166 57 54
167 26 45
168 83 180
169 70 37
170 97 65
171 53 31
172 179 141
173 100 53
174 55 64
175 8 71
176 174 185
177 176 144
178 123 36
179 142 60
180 53 61
181 62 38
182 123 33
183 136 111
184 28 160
185 85 85
186 12 66
187 107 96
188 168 119
189 171 36
190 188 88
191 135 45
192 26 41
193 195 129
194 108 141
195 75 134
196 141 4
197 60 58
198 196 137
199 7 142
200 190 112
201 63 192
202 97 129
203 71 131
204 159 105
205 109 48
206 189 83
207 142 27
208 68 40
209 56 90
210 98 193
211 121 36
212 101 70
213 134 157
214 103 77
215 87 117
216 183 170
217 193 12
218 127 60
219 178 140
220 95 50
221 25 165
222 124 191
223 138 69
224 177 145
225 50 31
226 37 177
227 48 30
228 197 29
229 40 130
230 23 168
231 24 140
232 20 59
233 81 183
234 190 109
235 28 187
236 145 19
237 164 37
238 186 96
239 105 70
240 140 6
241 146 166
242 56 148
243 66 52
244 53 59
245 179 5
246 122 58
247 37 190
248 155 22
249 175 143
250 199 132
251 131 92
252 83 197
253 180 66
254 87 195
255 129 176
256 185 123
257 77 115
258 7 119
259 195 97
260 162 118
261 196 111
262 32 47
263 100 144
264 13 152
265 192 113
266 25 143
267 51 31
268 14 84
269 12 69
270 165 113
271 138 72
272 135 0
273 8 89
274 110 110
275 177 146
276 87 196
277 89 39
278 65 77
279 63 149
280 143 5
281 32 178
282 193 111
283 162 123
284 67 127
285 73 81
286 50 67
287 38 188
288 183 120
289 129 38
290 35 186
291 180 93
292 146 3
293 8 154
294 200 162
295 8 69
296 131 38
297 78 115
298 123 31
299 39 151
300 53 175
301 1 54
302 40 95
303 5 73
304 7 151
305 166 117
306 39 186
307 165 116
308 99 12
309 48 106
310 154 7
311 18 35
312 135 171
313 11 118
314 78 72
315 19 51
316 69 133
317 56 59
318 99 45
319 103 67
320 53 79
321 194 112
322 42 165
323 68 156
324 172 114
325 98 4
326 104 176
327 200 136
328 21 85
329 67 138
330 111 129
331 97 7
332 114 112
333 125 49
334 75 173
335 42 72
336 53 180
337 174 194
338 39 112
339 6 193
340 6 67
341 14 92
342 3 75
343 23 142
344 57 118
345 65 53
346 140 3
347 187 112
348 112 6
349 63 55
350 104 68
351 30 187
352 194 129
353 53 67
354 186 65
355 12 131
356 122 37
357 36 193
358 113 105
359 84 180
360 136 90
361 61 50
362 97 67
363 190 110
364 87 118
365 137 4
366 179 151
367 189 97
368 15 87
369 157 142
370 138 61
371 65 42
372 60 184
373 85 192
374 93 7
375 95 16
376 125 38
377 149 78
378 185 115
379 158 132
380 29 121
381 122 13
382 57 157
383 8 73
384 115 75
385 41 43
386 104 5
387 172 55
388 184 140
389 12 113
390 40 183
391 193 131
392 129 40
393 84 192
394 95 74
395 8 74
396 181 147
397 17 93
398 66 196
399 123 90
400 110 184
401 121 46
PICKUP_AND_DELIVERY_SECTION
1 0 0 10000000 0 0 0
2 0 0 10000000 0 1 20
3 0 0 10000000 0 2 20
4 0 0 10000000 0 19 20
5 0 0 10000000 0 21 20
6 0 0 10000000 0 48 26
7 0 0 10000000 0 22 30
8 0 0 10000000 0 29 13
9 0 0 10000000 0 33 23
10 0 0 10000000 0 15 11
11 0 0 10000000 0 24 20
12 0 0 10000000 0 25 30
13 0 0 10000000 0 13 20
14 0 0 10000000 0 12 6
15 0 0 10000000 0 30 17
16 0 0 10000000 0 24 20
17 0 0 10000000 0 26 32
18 0 0 10000000 0 17 17
19 0 0 10000000 0 9 30
20 0 0 10000000 0 39 10
21 0 0 10000000 0 17 14
22 0 0 10000000 0 13 10
23 0 0 10000000 0 29 10
24 0 0 10000000 0 27 30
25 0 0 10000000 0 21 20
26 0 0 10000000 0 12 10
27 0 0 10000000 0 2 10
28 0 0 10000000 0 10 10
29 0 0 10000000 0 16 23
30 0 0 10000000 0 9 26
31 0 0 10000000 0 40 20
32 0 0 10000000 0 27 10
33 0 0 10000000 0 48 20
34 0 0 10000000 0 38 12
35 0 0 10000000 0 4 24
36 0 0 10000000 0 39 5
37 0 0 10000000 0 12 4
38 0 0 10000000 0 42 24
39 0 0 10000000 0 16 3
40 0 0 10000000 0 23 20
41 0 0 10000000 0 29 10
42 0 0 10000000 0 21 10
43 0 0 10000000 0 2 20
44 0 0 10000000 0 44 25
45 0 0 10000000 0 19 30
46 0 0 10000000 0 30 15
47 0 0 10000000 0 8 11
48 0 0 10000000 0 22 10
49 0 0 10000000 0 47 6
50 0 0 10000000 0 31 10
51 0 0 10000000 0 34 20
52 0 0 10000000 0 7 20
53 0 0 10000000 0 18 10
54 0 0 10000000 0 25 21
55 0 0 10000000 0 49 10
56 0 0 10000000 0 13 17
57 0 0 10000000 0 11 30
58 0 0 10000000 0 13 10
59 0 0 10000000 0 19 25
60 0 0 10000000 0 18 10
61 0 0 10000000 0 13 7
62 0 0 10000000 0 33 31
63 0 0 10000000 0 17 10
64 0 0 10000000 0 48 10
65 0 0 10000000 0 19 20
66 0 0 10000000 0 30 10
67 0 0 10000000 0 32 21
68 0 0 10000000 0 1 10
69 0 0 10000000 0 31 10
70 0 0 10000000 0 7 20
71 0 0 10000000 0 30 22
72 0 0 10000000 0 3 20
73 0 0 10000000 0 37 20
74 0 0 10000000 0 20 10
75 0 0 10000000 0 41 10
76 0 0 10000000 0 43 30
77 0 0 10000000 0 44 20
78 0 0 10000000 0 48 20
79 0 0 10000000 0 16 30
80 0 0 10000000 0 36 10
81 0 0 10000000 0 19 19
82 0 0 10000000 0 22 24
83 0 0 10000000 0 36 27
84 0 0 10000000 0 2 20
85 0 0 10000000 0 23 13
86 0 0 10000000 0 25 14
87 0 0 10000000 0 12 21
88 0 0 10000000 0 26 30
89 0 0 10000000 0 36 10
90 0 0 10000000 0 16 10
91 0 0 10000000 0 24 20
92 0 0 10000000 0 11 30
93 0 0 10000000 0 12 10
94 0 0 10000000 0 13 10
95 0 0 10000000 0 45 10
96 0 0 10000000 0 17 10
97 0 0 10000000 0 8 20
98 0 0 10000000 0 28 30
99 0 0 10000000 0 11 18
100 0 0 10000000 0 25 21
101 0 0 10000000 0 42 16
102 0 0 10000000 0 41 10
103 0 0 10000000 0 29 1
104 0 0 10000000 0 41 25
105 0 0 10000000 0 38 23
106 0 0 10000000 0 2 16
107 0 0 10000000 0 9 18
108 0 0 10000000 0 3 8
109 0 0 10000000 0 11 20
110 0 0 10000000 0 11 10
111 0 0 10000000 0 7 10
112 0 0 10000000 0 35 10
113 0 0 10000000 0 1 10
114 0 0 10000000 0 38 30
115 0 0 10000000 0 20 21
116 0 0 10000000 0 33 10
117 0 0 10000000 0 6 10
118 0 0 10000000 0 28 17
119 0 0 10000000 0 8 29
120 0 0 10000000 0 1 16
121 0 0 10000000 0 31 18
122 0 0 10000000 0 43 11
123 0 0 10000000 0 50 30
124 0 0 10000000 0 50 30
125 0 0 10000000 0 34 17
126 0 0 10000000 0 49 20
127 0 0 10000000 0 38 24
128 0 0 10000000 0 2 10
129 0 0 10000000 0 17 29
130 0 0 10000000 0 49 10
131 0 0 10000000 0 48 25
132 0 0 10000000 0 39 10
133 0 0 10000000 0 5 6
134 0 0 10000000 0 49 17
135 0 0 10000000 0 48 10
136 0 0 10000000 0 6 26
137 0 0 10000000 0 49 24
138 0 0 10000000 0 49 30
139 0 0 10000000 0 30 10
140 0 0 10000000 0 39 20
141 0 0 10000000 0 15 20
142 0 0 10000000 0 47 10
143 0 0 10000000 0 31 20
144 0 0 10000000 0 11 30
145 0 0 10000000 0 19 20
146 0 0 10000000 0 44 20
147 0 0 10000000 0 21 10
148 0 0 10000000 0 22 10
149 0 0 10000000 0 41 10
150 0 0 10000000 0 50 20
151 0 0 10000000 0 42 22
152 0 0 10000000 0 18 22
153 0 0 10000000 0 22 20
154 0 0 10000000 0 10 26
155 0 0 10000000 0 37 15
156 0 0 10000000 0 29 20
157 0 0 10000000 0 27 10
158 0 0 10000000 0 18 30
159 0 0 10000000 0 6 30
160 0 0 10000000 0 42 3
161 0 0 10000000 0 15 15
162 0 0 10000000 0 28 10
163 0 0 10000000 0 32 13
164 0 0 10000000 0 32 11
165 0 0 10000000 0 32 21
166 0 0 10000000 0 37 20
167 0 0 10000000 0 43 8
168 0 0 10000000 0 15 15
169 0 0 10000000 0 25 10
170 0 0 10000000 0 32 20
171 0 0 10000000 0 35 10
172 0 0 10000000 0 2 20
173 0 0 10000000 0 29 22
174 0 0 10000000 0 9 30
175 0 0 10000000 0 32 10
176 0 0 10000000 0 27 15
177 0 0 10000000 0 8 20
178 0 0 10000000 0 17 10
179 0 0 10000000 0 7 13
180 0 0 10000000 0 1 20
181 0 0 10000000 0 4 19
182 0 0 10000000 0 14 20
183 0 0 10000000 0 43 19
184 0 0 10000000 0 6 27
185 0 0 10000000 0 20 14
186 0 0 10000000 0 21 20
187 0 0 10000000 0 33 23
188 0 0 10000000 0 30 14
189 0 0 10000000 0 13 6
190 0 0 10000000 0 28 20
191 0 0 10000000 0 2 7
192 0 0 10000000 0 1 14
193 0 0 10000000 0 34 40
194 0 0 10000000 0 15 13
195 0 0 10000000 0 34 16
196 0 0 10000000 0 3 20
197 0 0 10000000 0 39 20
198 0 0 10000000 0 17 20
199 0 0 10000000 0 38 20
200 0 0 10000000 0 35 20
201 0 0 10000000 0 10 12
202 0 0 10000000 0 16 11
203 0 0 10000000 0 12 11
204 0 0 10000000 0 28 20
205 0 0 10000000 0 1 3
206 0 0 10000000 0 33 43
207 0 0 10000000 0 49 11
208 0 0 10000000 0 19 23
209 0 0 10000000 0 19 15
210 0 0 10000000 0 5 27
211 0 0 10000000 0 27 20
212 0 0 10000000 0 11 20
213 0 0 10000000 0 22 20
214 0 0 10000000 0 45 21
215 0 0 10000000 0 6 10
216 0 0 10000000 0 42 17
217 0 0 10000000 0 27 3
218 0 0 10000000 0 24 23
219 0 0 10000000 0 43 10
220 0 0 10000000 0 18 25
221 0 0 10000000 0 41 24
222 0 0 10000000 0 15 24
223 0 0 10000000 0 25 9
224 0 0 10000000 0 12 10
225 0 0 10000000 0 19 20
226 0 0 10000000 0 27 21
227 0 0 10000000 0 7 50
228 0 0 10000000 0 11 16
229 0 0 10000000 0 38 1
230 0 0 10000000 0 2 13
231 0 0 10000000 0 25 20
232 0 0 10000000 0 26 20
233 0 0 10000000 0 37 11
234 0 0 10000000 0 5 10
235 0 0 10000000 0 8 16
236 0 0 10000000 0 37 20
237 0 0 10000000 0 5 19
238 0 0 10000000 0 32 20
239 0 0 10000000 0 15 10
240 0 0 10000000 0 46 30
241 0 0 10000000 0 17 24
242 0 0 10000000 0 20 20
243 0 0 10000000 0 13 10
244 0 0 10000000 0 4 20
245 0 0 10000000 0 21 9
246 0 0 10000000 0 23 15
247 0 0 10000000 0 48 10
248 0 0 10000000 0 50 24
249 0 0 10000000 0 31 20
250 0 0 10000000 0 7 10
251 0 0 10000000 0 27 22
252 0 0 10000000 0 45 20
253 0 0 10000000 0 35 13
254 0 0 10000000 0 43 10
255 0 0 10000000 0 17 18
256 0 0 10000000 0 34 30
257 0 0 10000000 0 26 20
258 0 0 10000000 0 48 30
259 0 0 10000000 0 36 20
260 0 0 10000000 0 24 20
261 0 0 10000000 0 45 30
262 0 0 10000000 0 14 27
263 0 0 10000000 0 20 17
264 0 0 10000000 0 1 20
265 0 0 10000000 0 26 20
266 0 0 10000000 0 48 20
267 0 0 10000000 0 25 20
268 0 0 10000000 0 36 20
269 0 0 10000000 0 40 10
270 0 0 10000000 0 45 10
271 0 0 10000000 0 7 8
272 0 0 10000000 0 41 10
273 0 0 10000000 0 28 13
274 0 0 10000000 0 41 14
275 0 0 10000000 0 29 10
276 0 0 10000000 0 42 30
277 0 0 10000000 0 29 19
278 0 0 10000000 0 31 19
279 0 0 10000000 0 4 17
280 0 0 10000000 0 1 10
281 0 0 10000000 0 9 10
282 0 0 10000000 0 1 20
283 0 0 10000000 0 5 40
284 0 0 10000000 0 47 21
285 0 0 10000000 0 44 19
286 0 0 10000000 0 6 10
287 0 0 10000000 0 16 20
288 0 0 10000000 0 47 10
289 0 0 10000000 0 27 10
290 0 0 10000000 0 26 10
291 0 0 10000000 0 38 10
292 0 0 10000000 0 24 24
293 0 0 10000000 0 26 20
294 0 0 10000000 0 23 24
295 0 0 10000000 0 4 20
296 0 0 10000000 0 16 20
297 0 0 10000000 0 36 10
298 0 0 10000000 0 31 20
299 0 0 10000000 0 22 26
300 0 0 10000000 0 17 28
301 0 0 10000000 0 31 14
302 0 0 10000000 0 46 25
303 0 0 10000000 0 47 10
304 0 0 10000000 0 7 20
305 0 0 10000000 0 43 20
306 0 0 10000000 0 13 5
307 0 0 10000000 0 19 10
308 0 0 10000000 0 45 30
309 0 0 10000000 0 26 23
310 0 0 10000000 0 7 32
311 0 0 10000000 0 30 24
312 0 0 10000000 0 15 27
313 0 0 10000000 0 27 33
314 0 0 10000000 0 26 9
315 0 0 10000000 0 2 19
316 0 0 10000000 0 45 8
317 0 0 10000000 0 44 30
318 0 0 10000000 0 27 21
319 0 0 10000000 0 3 20
320 0 0 10000000 0 5 14
321 0 0 10000000 0 7 10
322 0 0 10000000 0 28 22
323 0 0 10000000 0 13 28
324 0 0 10000000 0 48 20
325 0 0 10000000 0 47 20
326 0 0 10000000 0 7 19
327 0 0 10000000 0 29 20
328 0 0 10000000 0 28 20
329 0 0 10000000 0 14 11
330 0 0 10000000 0 34 27
331 0 0 10000000 0 15 20
332 0 0 10000000 0 5 17
333 0 0 10000000 0 31 17
334 0 0 10000000 0 32 30
335 0 0 10000000 0 3 18
336 0 0 10000000 0 21 4
337 0 0 10000000 0 14 8
338 0 0 10000000 0 48 26
339 0 0 10000000 0 13 13
340 0 0 10000000 0 48 10
341 0 0 10000000 0 40 30
342 0 0 10000000 0 40 10
343 0 0 10000000 0 50 10
344 0 0 10000000 0 8 21
345 0 0 10000000 0 39 10
346 0 0 10000000 0 46 10
347 0 0 10000000 0 50 30
348 0 0 10000000 0 46 39
349 0 0 10000000 0 38 10
350 0 0 10000000 0 6 10
351 0 0 10000000 0 6 10
352 0 0 10000000 0 34 20
353 0 0 10000000 0 14 20
354 0 0 10000000 0 36 39
355 0 0 10000000 0 41 28
356 0 0 10000000 0 47 30
357 0 0 10000000 0 26 20
358 0 0 10000000 0 47 23
359 0 0 10000000 0 19 12
360 0 0 10000000 0 40 18
361 0 0 10000000 0 46 10
362 0 0 10000000 0 29 10
363 0 0 10000000 0 29 20
364 0 0 10000000 0 12 10
365 0 0 10000000 0 15 10
366 0 0 10000000 0 34 20
367 0 0 10000000 0 35 20
368 0 0 10000000 0 33 20
369 0 0 10000000 0 10 13
370 0 0 10000000 0 25 19
371 0 0 10000000 0 19 12
372 0 0 10000000 0 42 7
373 0 0 10000000 0 2 10
374 0 0 10000000 0 27 20
375 0 0 10000000 0 9 20
376 0 0 10000000 0 46 30
377 0 0 10000000 0 36 6
378 0 0 10000000 0 15 20
379 0 0 10000000 0 39 12
380 0 0 10000000 0 42 46
381 0 0 10000000 0 3 27
382 0 0 10000000 0 26 26
383 0 0 10000000 0 45 20
384 0 0 10000000 0 31 26
385 0 0 10000000 0 8 30
386 0 0 10000000 0 50 26
387 0 0 10000000 0 36 11
388 0 0 10000000 0 31 15
389 0 0 10000000 0 31 2
390 0 0 10000000 0 27 20
391 0 0 10000000 0 13 20
392 0 0 10000000 0 2 20
393 0 0 10000000 0 6 10
394 0 0 10000000 0 28 20
395 0 0 10000000 0 44 20
396 0 0 10000000 0 36 20
397 0 0 10000000 0 36 20
398 0 0 10000000 0 7 23
399 0 0 10000000 0 48 21
400 0 0 10000000 0 16 10
401 0 0 10000000 0 10 3
DEPOT_SECTION
1 
-1
EOF
